c SUBTRACT 0 
p wcnf 700 1685 701
1 -1 0
1 -2 0
1 -3 0
1 -4 0
1 -5 0
1 -6 0
1 -7 0
1 -8 0
1 -9 0
1 -10 0
1 -11 0
1 -12 0
1 -13 0
1 -14 0
1 -15 0
1 -16 0
1 -17 0
1 -18 0
1 -19 0
1 -20 0
1 -21 0
1 -22 0
1 -23 0
1 -24 0
1 -25 0
1 -26 0
1 -27 0
1 -28 0
1 -29 0
1 -30 0
1 -31 0
1 -32 0
1 -33 0
1 -34 0
1 -35 0
1 -36 0
1 -37 0
1 -38 0
1 -39 0
1 -40 0
1 -41 0
1 -42 0
1 -43 0
1 -44 0
1 -45 0
1 -46 0
1 -47 0
1 -48 0
1 -49 0
1 -50 0
1 -51 0
1 -52 0
1 -53 0
1 -54 0
1 -55 0
1 -56 0
1 -57 0
1 -58 0
1 -59 0
1 -60 0
1 -61 0
1 -62 0
1 -63 0
1 -64 0
1 -65 0
1 -66 0
1 -67 0
1 -68 0
1 -69 0
1 -70 0
1 -71 0
1 -72 0
1 -73 0
1 -74 0
1 -75 0
1 -76 0
1 -77 0
1 -78 0
1 -79 0
1 -80 0
1 -81 0
1 -82 0
1 -83 0
1 -84 0
1 -85 0
1 -86 0
1 -87 0
1 -88 0
1 -89 0
1 -90 0
1 -91 0
1 -92 0
1 -93 0
1 -94 0
1 -95 0
1 -96 0
1 -97 0
1 -98 0
1 -99 0
1 -100 0
1 -101 0
1 -102 0
1 -103 0
1 -104 0
1 -105 0
1 -106 0
1 -107 0
1 -108 0
1 -109 0
1 -110 0
1 -111 0
1 -112 0
1 -113 0
1 -114 0
1 -115 0
1 -116 0
1 -117 0
1 -118 0
1 -119 0
1 -120 0
1 -121 0
1 -122 0
1 -123 0
1 -124 0
1 -125 0
1 -126 0
1 -127 0
1 -128 0
1 -129 0
1 -130 0
1 -131 0
1 -132 0
1 -133 0
1 -134 0
1 -135 0
1 -136 0
1 -137 0
1 -138 0
1 -139 0
1 -140 0
1 -141 0
1 -142 0
1 -143 0
1 -144 0
1 -145 0
1 -146 0
1 -147 0
1 -148 0
1 -149 0
1 -150 0
1 -151 0
1 -152 0
1 -153 0
1 -154 0
1 -155 0
1 -156 0
1 -157 0
1 -158 0
1 -159 0
1 -160 0
1 -161 0
1 -162 0
1 -163 0
1 -164 0
1 -165 0
1 -166 0
1 -167 0
1 -168 0
1 -169 0
1 -170 0
1 -171 0
1 -172 0
1 -173 0
1 -174 0
1 -175 0
1 -176 0
1 -177 0
1 -178 0
1 -179 0
1 -180 0
1 -181 0
1 -182 0
1 -183 0
1 -184 0
1 -185 0
1 -186 0
1 -187 0
1 -188 0
1 -189 0
1 -190 0
1 -191 0
1 -192 0
1 -193 0
1 -194 0
1 -195 0
1 -196 0
1 -197 0
1 -198 0
1 -199 0
1 -200 0
1 -201 0
1 -202 0
1 -203 0
1 -204 0
1 -205 0
1 -206 0
1 -207 0
1 -208 0
1 -209 0
1 -210 0
1 -211 0
1 -212 0
1 -213 0
1 -214 0
1 -215 0
1 -216 0
1 -217 0
1 -218 0
1 -219 0
1 -220 0
1 -221 0
1 -222 0
1 -223 0
1 -224 0
1 -225 0
1 -226 0
1 -227 0
1 -228 0
1 -229 0
1 -230 0
1 -231 0
1 -232 0
1 -233 0
1 -234 0
1 -235 0
1 -236 0
1 -237 0
1 -238 0
1 -239 0
1 -240 0
1 -241 0
1 -242 0
1 -243 0
1 -244 0
1 -245 0
1 -246 0
1 -247 0
1 -248 0
1 -249 0
1 -250 0
1 -251 0
1 -252 0
1 -253 0
1 -254 0
1 -255 0
1 -256 0
1 -257 0
1 -258 0
1 -259 0
1 -260 0
1 -261 0
1 -262 0
1 -263 0
1 -264 0
1 -265 0
1 -266 0
1 -267 0
1 -268 0
1 -269 0
1 -270 0
1 -271 0
1 -272 0
1 -273 0
1 -274 0
1 -275 0
1 -276 0
1 -277 0
1 -278 0
1 -279 0
1 -280 0
1 -281 0
1 -282 0
1 -283 0
1 -284 0
1 -285 0
1 -286 0
1 -287 0
1 -288 0
1 -289 0
1 -290 0
1 -291 0
1 -292 0
1 -293 0
1 -294 0
1 -295 0
1 -296 0
1 -297 0
1 -298 0
1 -299 0
1 -300 0
1 -301 0
1 -302 0
1 -303 0
1 -304 0
1 -305 0
1 -306 0
1 -307 0
1 -308 0
1 -309 0
1 -310 0
1 -311 0
1 -312 0
1 -313 0
1 -314 0
1 -315 0
1 -316 0
1 -317 0
1 -318 0
1 -319 0
1 -320 0
1 -321 0
1 -322 0
1 -323 0
1 -324 0
1 -325 0
1 -326 0
1 -327 0
1 -328 0
1 -329 0
1 -330 0
1 -331 0
1 -332 0
1 -333 0
1 -334 0
1 -335 0
1 -336 0
1 -337 0
1 -338 0
1 -339 0
1 -340 0
1 -341 0
1 -342 0
1 -343 0
1 -344 0
1 -345 0
1 -346 0
1 -347 0
1 -348 0
1 -349 0
1 -350 0
1 -351 0
1 -352 0
1 -353 0
1 -354 0
1 -355 0
1 -356 0
1 -357 0
1 -358 0
1 -359 0
1 -360 0
1 -361 0
1 -362 0
1 -363 0
1 -364 0
1 -365 0
1 -366 0
1 -367 0
1 -368 0
1 -369 0
1 -370 0
1 -371 0
1 -372 0
1 -373 0
1 -374 0
1 -375 0
1 -376 0
1 -377 0
1 -378 0
1 -379 0
1 -380 0
1 -381 0
1 -382 0
1 -383 0
1 -384 0
1 -385 0
1 -386 0
1 -387 0
1 -388 0
1 -389 0
1 -390 0
1 -391 0
1 -392 0
1 -393 0
1 -394 0
1 -395 0
1 -396 0
1 -397 0
1 -398 0
1 -399 0
1 -400 0
1 -401 0
1 -402 0
1 -403 0
1 -404 0
1 -405 0
1 -406 0
1 -407 0
1 -408 0
1 -409 0
1 -410 0
1 -411 0
1 -412 0
1 -413 0
1 -414 0
1 -415 0
1 -416 0
1 -417 0
1 -418 0
1 -419 0
1 -420 0
1 -421 0
1 -422 0
1 -423 0
1 -424 0
1 -425 0
1 -426 0
1 -427 0
1 -428 0
1 -429 0
1 -430 0
1 -431 0
1 -432 0
1 -433 0
1 -434 0
1 -435 0
1 -436 0
1 -437 0
1 -438 0
1 -439 0
1 -440 0
1 -441 0
1 -442 0
1 -443 0
1 -444 0
1 -445 0
1 -446 0
1 -447 0
1 -448 0
1 -449 0
1 -450 0
1 -451 0
1 -452 0
1 -453 0
1 -454 0
1 -455 0
1 -456 0
1 -457 0
1 -458 0
1 -459 0
1 -460 0
1 -461 0
1 -462 0
1 -463 0
1 -464 0
1 -465 0
1 -466 0
1 -467 0
1 -468 0
1 -469 0
1 -470 0
1 -471 0
1 -472 0
1 -473 0
1 -474 0
1 -475 0
1 -476 0
1 -477 0
1 -478 0
1 -479 0
1 -480 0
1 -481 0
1 -482 0
1 -483 0
1 -484 0
1 -485 0
1 -486 0
1 -487 0
1 -488 0
1 -489 0
1 -490 0
1 -491 0
1 -492 0
1 -493 0
1 -494 0
1 -495 0
1 -496 0
1 -497 0
1 -498 0
1 -499 0
1 -500 0
1 -501 0
1 -502 0
1 -503 0
1 -504 0
1 -505 0
1 -506 0
1 -507 0
1 -508 0
1 -509 0
1 -510 0
1 -511 0
1 -512 0
1 -513 0
1 -514 0
1 -515 0
1 -516 0
1 -517 0
1 -518 0
1 -519 0
1 -520 0
1 -521 0
1 -522 0
1 -523 0
1 -524 0
1 -525 0
1 -526 0
1 -527 0
1 -528 0
1 -529 0
1 -530 0
1 -531 0
1 -532 0
1 -533 0
1 -534 0
1 -535 0
1 -536 0
1 -537 0
1 -538 0
1 -539 0
1 -540 0
1 -541 0
1 -542 0
1 -543 0
1 -544 0
1 -545 0
1 -546 0
1 -547 0
1 -548 0
1 -549 0
1 -550 0
1 -551 0
1 -552 0
1 -553 0
1 -554 0
1 -555 0
1 -556 0
1 -557 0
1 -558 0
1 -559 0
1 -560 0
1 -561 0
1 -562 0
1 -563 0
1 -564 0
1 -565 0
1 -566 0
1 -567 0
1 -568 0
1 -569 0
1 -570 0
1 -571 0
1 -572 0
1 -573 0
1 -574 0
1 -575 0
1 -576 0
1 -577 0
1 -578 0
1 -579 0
1 -580 0
1 -581 0
1 -582 0
1 -583 0
1 -584 0
1 -585 0
1 -586 0
1 -587 0
1 -588 0
1 -589 0
1 -590 0
1 -591 0
1 -592 0
1 -593 0
1 -594 0
1 -595 0
1 -596 0
1 -597 0
1 -598 0
1 -599 0
1 -600 0
1 -601 0
1 -602 0
1 -603 0
1 -604 0
1 -605 0
1 -606 0
1 -607 0
1 -608 0
1 -609 0
1 -610 0
1 -611 0
1 -612 0
1 -613 0
1 -614 0
1 -615 0
1 -616 0
1 -617 0
1 -618 0
1 -619 0
1 -620 0
1 -621 0
1 -622 0
1 -623 0
1 -624 0
1 -625 0
1 -626 0
1 -627 0
1 -628 0
1 -629 0
1 -630 0
1 -631 0
1 -632 0
1 -633 0
1 -634 0
1 -635 0
1 -636 0
1 -637 0
1 -638 0
1 -639 0
1 -640 0
1 -641 0
1 -642 0
1 -643 0
1 -644 0
1 -645 0
1 -646 0
1 -647 0
1 -648 0
1 -649 0
1 -650 0
1 -651 0
1 -652 0
1 -653 0
1 -654 0
1 -655 0
1 -656 0
1 -657 0
1 -658 0
1 -659 0
1 -660 0
1 -661 0
1 -662 0
1 -663 0
1 -664 0
1 -665 0
1 -666 0
1 -667 0
1 -668 0
1 -669 0
1 -670 0
1 -671 0
1 -672 0
1 -673 0
1 -674 0
1 -675 0
1 -676 0
1 -677 0
1 -678 0
1 -679 0
1 -680 0
1 -681 0
1 -682 0
1 -683 0
1 -684 0
1 -685 0
1 -686 0
1 -687 0
1 -688 0
1 -689 0
1 -690 0
1 -691 0
1 -692 0
1 -693 0
1 -694 0
1 -695 0
1 -696 0
1 -697 0
1 -698 0
1 -699 0
1 -700 0
701 1 0
701 -2 0
701 3 0
701 -4 0
701 19 0
701 -20 0
701 21 0
701 -22 0
701 23 0
701 -24 0
701 25 0
701 -26 0
701 27 0
701 -28 0
701 -37 0
701 38 0
701 -39 0
701 40 0
701 55 0
701 -56 0
701 57 0
701 -58 0
701 73 0
701 -74 0
701 -91 0
701 92 0
701 -93 0
701 94 0
701 -95 0
701 96 0
701 109 0
701 -110 0
701 -127 0
701 128 0
701 -145 0
701 146 0
701 -147 0
701 148 0
701 163 0
701 -164 0
701 165 0
701 -166 0
701 181 0
701 -182 0
701 183 0
701 -184 0
701 199 0
701 -200 0
701 217 0
701 -218 0
701 219 0
701 -220 0
701 221 0
701 -222 0
701 235 0
701 -236 0
701 -253 0
701 254 0
701 -255 0
701 256 0
701 -257 0
701 258 0
701 -259 0
701 260 0
701 271 0
701 -272 0
701 -305 0
701 306 0
701 -307 0
701 308 0
701 -309 0
701 310 0
701 -311 0
701 312 0
701 -313 0
701 314 0
701 -315 0
701 316 0
701 -319 0
701 320 0
701 -321 0
701 322 0
701 -323 0
701 324 0
701 -325 0
701 326 0
701 -327 0
701 328 0
701 -331 0
701 332 0
701 -333 0
701 334 0
701 -335 0
701 336 0
701 -337 0
701 338 0
701 -339 0
701 340 0
701 -343 0
701 344 0
701 -345 0
701 346 0
701 -347 0
701 348 0
701 -349 0
701 350 0
701 -351 0
701 352 0
701 -355 0
701 356 0
701 -357 0
701 358 0
701 -359 0
701 360 0
701 -361 0
701 362 0
701 -363 0
701 364 0
701 -367 0
701 368 0
701 -369 0
701 370 0
701 -371 0
701 372 0
701 -373 0
701 374 0
701 -375 0
701 376 0
701 -379 0
701 380 0
701 -381 0
701 382 0
701 -383 0
701 384 0
701 -385 0
701 386 0
701 -387 0
701 388 0
701 -391 0
701 392 0
701 -393 0
701 394 0
701 -395 0
701 396 0
701 -397 0
701 398 0
701 -399 0
701 400 0
701 -403 0
701 404 0
701 -405 0
701 406 0
701 -407 0
701 408 0
701 -409 0
701 410 0
701 -411 0
701 412 0
701 -415 0
701 416 0
701 -417 0
701 418 0
701 -419 0
701 420 0
701 -421 0
701 422 0
701 -423 0
701 424 0
701 -427 0
701 428 0
701 -429 0
701 430 0
701 -431 0
701 432 0
701 -433 0
701 434 0
701 -435 0
701 436 0
701 -439 0
701 440 0
701 -441 0
701 442 0
701 -443 0
701 444 0
701 -445 0
701 446 0
701 -447 0
701 448 0
701 -451 0
701 452 0
701 -453 0
701 454 0
701 -455 0
701 456 0
701 -457 0
701 458 0
701 -459 0
701 460 0
701 -463 0
701 464 0
701 -465 0
701 466 0
701 -467 0
701 468 0
701 -469 0
701 470 0
701 -471 0
701 472 0
701 -475 0
701 476 0
701 -477 0
701 478 0
701 -479 0
701 480 0
701 -481 0
701 482 0
701 -483 0
701 484 0
701 -487 0
701 488 0
701 -489 0
701 490 0
701 -491 0
701 492 0
701 -493 0
701 494 0
701 -495 0
701 496 0
701 -499 0
701 500 0
701 -501 0
701 502 0
701 -503 0
701 504 0
701 -505 0
701 506 0
701 -507 0
701 508 0
701 -511 0
701 512 0
701 -513 0
701 514 0
701 -515 0
701 516 0
701 -517 0
701 518 0
701 -519 0
701 520 0
701 -523 0
701 524 0
701 -525 0
701 526 0
701 -527 0
701 528 0
701 -529 0
701 530 0
701 -531 0
701 532 0
701 -535 0
701 536 0
701 -537 0
701 538 0
701 -539 0
701 540 0
701 -541 0
701 542 0
701 -543 0
701 544 0
701 -547 0
701 548 0
701 -549 0
701 550 0
701 -551 0
701 552 0
701 -553 0
701 554 0
701 -555 0
701 556 0
701 -559 0
701 560 0
701 -561 0
701 562 0
701 -563 0
701 564 0
701 -565 0
701 566 0
701 -567 0
701 568 0
701 -571 0
701 572 0
701 -573 0
701 574 0
701 -575 0
701 576 0
701 -577 0
701 578 0
701 -579 0
701 580 0
701 -583 0
701 584 0
701 -585 0
701 586 0
701 -587 0
701 588 0
701 -589 0
701 590 0
701 -591 0
701 592 0
701 -595 0
701 596 0
701 -597 0
701 598 0
701 -599 0
701 600 0
701 -601 0
701 602 0
701 -603 0
701 604 0
701 -607 0
701 608 0
701 -609 0
701 610 0
701 -611 0
701 612 0
701 -613 0
701 614 0
701 -615 0
701 616 0
701 -619 0
701 620 0
701 -621 0
701 622 0
701 -623 0
701 624 0
701 -625 0
701 626 0
701 -627 0
701 628 0
701 -631 0
701 632 0
701 -633 0
701 634 0
701 -635 0
701 636 0
701 -637 0
701 638 0
701 -639 0
701 640 0
701 -643 0
701 644 0
701 -645 0
701 646 0
701 -647 0
701 648 0
701 -649 0
701 650 0
701 -651 0
701 652 0
701 -655 0
701 656 0
701 -657 0
701 658 0
701 -659 0
701 660 0
701 -661 0
701 662 0
701 -663 0
701 664 0
701 -667 0
701 668 0
701 -669 0
701 670 0
701 -671 0
701 672 0
701 -673 0
701 674 0
701 -675 0
701 676 0
701 -679 0
701 680 0
701 -681 0
701 682 0
701 -683 0
701 684 0
701 -685 0
701 686 0
701 -687 0
701 688 0
701 -691 0
701 692 0
701 -693 0
701 694 0
701 -695 0
701 696 0
701 -697 0
701 698 0
701 -699 0
701 700 0
701 5 291 0
701 6 292 0
701 6 7 0
701 5 8 0
701 8 9 295 0
701 7 9 296 0
701 7 10 295 0
701 8 10 296 0
701 10 11 297 0
701 9 11 298 0
701 9 12 297 0
701 10 12 298 0
701 12 13 299 0
701 11 13 300 0
701 11 14 299 0
701 12 14 300 0
701 14 15 0
701 13 16 0
701 16 17 0
701 15 18 0
701 29 297 0
701 30 298 0
701 30 31 0
701 29 32 0
701 32 33 0
701 31 34 0
701 34 35 303 0
701 33 35 304 0
701 33 36 303 0
701 34 36 304 0
701 41 292 0
701 42 291 0
701 42 43 293 0
701 41 43 294 0
701 41 44 293 0
701 42 44 294 0
701 44 45 0
701 43 46 0
701 46 47 0
701 45 48 0
701 48 49 0
701 47 50 0
701 50 51 0
701 49 52 0
701 52 53 0
701 51 54 0
701 59 291 0
701 60 292 0
701 60 61 293 0
701 59 61 294 0
701 59 62 293 0
701 60 62 294 0
701 62 63 0
701 61 64 0
701 64 65 0
701 63 66 0
701 66 67 0
701 65 68 0
701 68 69 301 0
701 67 69 302 0
701 67 70 301 0
701 68 70 302 0
701 70 71 303 0
701 69 71 304 0
701 69 72 303 0
701 70 72 304 0
701 75 289 0
701 76 290 0
701 76 77 291 0
701 75 77 292 0
701 75 78 291 0
701 76 78 292 0
701 78 79 293 0
701 77 79 294 0
701 77 80 293 0
701 78 80 294 0
701 80 81 0
701 79 82 0
701 82 83 297 0
701 81 83 298 0
701 81 84 297 0
701 82 84 298 0
701 84 85 0
701 83 86 0
701 86 87 301 0
701 85 87 302 0
701 85 88 301 0
701 86 88 302 0
701 88 89 303 0
701 87 89 304 0
701 87 90 303 0
701 88 90 304 0
701 97 294 0
701 98 293 0
701 98 99 0
701 97 100 0
701 100 101 0
701 99 102 0
701 102 103 299 0
701 101 103 300 0
701 101 104 299 0
701 102 104 300 0
701 104 105 301 0
701 103 105 302 0
701 103 106 301 0
701 104 106 302 0
701 106 107 0
701 105 108 0
701 111 289 0
701 112 290 0
701 112 113 291 0
701 111 113 292 0
701 111 114 291 0
701 112 114 292 0
701 114 115 293 0
701 113 115 294 0
701 113 116 293 0
701 114 116 294 0
701 116 117 0
701 115 118 0
701 118 119 0
701 117 120 0
701 120 121 299 0
701 119 121 300 0
701 119 122 299 0
701 120 122 300 0
701 122 123 301 0
701 121 123 302 0
701 121 124 301 0
701 122 124 302 0
701 124 125 0
701 123 126 0
701 129 290 0
701 130 289 0
701 130 131 291 0
701 129 131 292 0
701 129 132 291 0
701 130 132 292 0
701 132 133 0
701 131 134 0
701 134 135 0
701 133 136 0
701 136 137 0
701 135 138 0
701 138 139 299 0
701 137 139 300 0
701 137 140 299 0
701 138 140 300 0
701 140 141 0
701 139 142 0
701 142 143 303 0
701 141 143 304 0
701 141 144 303 0
701 142 144 304 0
701 149 292 0
701 150 291 0
701 150 151 0
701 149 152 0
701 152 153 0
701 151 154 0
701 154 155 297 0
701 153 155 298 0
701 153 156 297 0
701 154 156 298 0
701 156 157 299 0
701 155 157 300 0
701 155 158 299 0
701 156 158 300 0
701 158 159 0
701 157 160 0
701 160 161 0
701 159 162 0
701 167 291 0
701 168 292 0
701 168 169 0
701 167 170 0
701 170 171 0
701 169 172 0
701 172 173 297 0
701 171 173 298 0
701 171 174 297 0
701 172 174 298 0
701 174 175 299 0
701 173 175 300 0
701 173 176 299 0
701 174 176 300 0
701 176 177 301 0
701 175 177 302 0
701 175 178 301 0
701 176 178 302 0
701 178 179 0
701 177 180 0
701 185 291 0
701 186 292 0
701 186 187 293 0
701 185 187 294 0
701 185 188 293 0
701 186 188 294 0
701 188 189 0
701 187 190 0
701 190 191 0
701 189 192 0
701 192 193 299 0
701 191 193 300 0
701 191 194 299 0
701 192 194 300 0
701 194 195 0
701 193 196 0
701 196 197 0
701 195 198 0
701 201 289 0
701 202 290 0
701 202 203 0
701 201 204 0
701 204 205 293 0
701 203 205 294 0
701 203 206 293 0
701 204 206 294 0
701 206 207 0
701 205 208 0
701 208 209 0
701 207 210 0
701 210 211 0
701 209 212 0
701 212 213 0
701 211 214 0
701 214 215 0
701 213 216 0
701 223 293 0
701 224 294 0
701 224 225 295 0
701 223 225 296 0
701 223 226 295 0
701 224 226 296 0
701 226 227 297 0
701 225 227 298 0
701 225 228 297 0
701 226 228 298 0
701 228 229 299 0
701 227 229 300 0
701 227 230 299 0
701 228 230 300 0
701 230 231 0
701 229 232 0
701 232 233 0
701 231 234 0
701 237 289 0
701 238 290 0
701 238 239 291 0
701 237 239 292 0
701 237 240 291 0
701 238 240 292 0
701 240 241 0
701 239 242 0
701 242 243 0
701 241 244 0
701 244 245 297 0
701 243 245 298 0
701 243 246 297 0
701 244 246 298 0
701 246 247 0
701 245 248 0
701 248 249 301 0
701 247 249 302 0
701 247 250 301 0
701 248 250 302 0
701 250 251 303 0
701 249 251 304 0
701 249 252 303 0
701 250 252 304 0
701 261 296 0
701 262 295 0
701 262 263 0
701 261 264 0
701 264 265 0
701 263 266 0
701 266 267 301 0
701 265 267 302 0
701 265 268 301 0
701 266 268 302 0
701 268 269 303 0
701 267 269 304 0
701 267 270 303 0
701 268 270 304 0
701 273 289 0
701 274 290 0
701 274 275 291 0
701 273 275 292 0
701 273 276 291 0
701 274 276 292 0
701 276 277 293 0
701 275 277 294 0
701 275 278 293 0
701 276 278 294 0
701 278 279 0
701 277 280 0
701 280 281 297 0
701 279 281 298 0
701 279 282 297 0
701 280 282 298 0
701 282 283 299 0
701 281 283 300 0
701 281 284 299 0
701 282 284 300 0
701 284 285 301 0
701 283 285 302 0
701 283 286 301 0
701 284 286 302 0
701 286 287 303 0
701 285 287 304 0
701 285 288 303 0
701 286 288 304 0
701 17 510 0
701 18 509 0
701 317 510 0
701 318 509 0
701 35 522 0
701 36 521 0
701 318 329 521 0
701 317 329 522 0
701 317 330 521 0
701 318 330 522 0
701 318 522 0
701 318 329 0
701 53 534 0
701 54 533 0
701 330 341 533 0
701 329 341 534 0
701 329 342 533 0
701 330 342 534 0
701 330 534 0
701 330 341 0
701 71 546 0
701 72 545 0
701 342 353 545 0
701 341 353 546 0
701 341 354 545 0
701 342 354 546 0
701 342 546 0
701 342 353 0
701 89 558 0
701 90 557 0
701 354 365 557 0
701 353 365 558 0
701 353 366 557 0
701 354 366 558 0
701 354 558 0
701 354 365 0
701 107 570 0
701 108 569 0
701 366 377 569 0
701 365 377 570 0
701 365 378 569 0
701 366 378 570 0
701 366 570 0
701 366 377 0
701 125 582 0
701 126 581 0
701 378 389 581 0
701 377 389 582 0
701 377 390 581 0
701 378 390 582 0
701 378 582 0
701 378 389 0
701 143 594 0
701 144 593 0
701 390 401 593 0
701 389 401 594 0
701 389 402 593 0
701 390 402 594 0
701 390 594 0
701 390 401 0
701 161 606 0
701 162 605 0
701 402 413 605 0
701 401 413 606 0
701 401 414 605 0
701 402 414 606 0
701 402 606 0
701 402 413 0
701 179 618 0
701 180 617 0
701 414 425 617 0
701 413 425 618 0
701 413 426 617 0
701 414 426 618 0
701 414 618 0
701 414 425 0
701 197 630 0
701 198 629 0
701 426 437 629 0
701 425 437 630 0
701 425 438 629 0
701 426 438 630 0
701 426 630 0
701 426 437 0
701 215 642 0
701 216 641 0
701 438 449 641 0
701 437 449 642 0
701 437 450 641 0
701 438 450 642 0
701 438 642 0
701 438 449 0
701 233 654 0
701 234 653 0
701 450 461 653 0
701 449 461 654 0
701 449 462 653 0
701 450 462 654 0
701 450 654 0
701 450 461 0
701 251 666 0
701 252 665 0
701 462 473 665 0
701 461 473 666 0
701 461 474 665 0
701 462 474 666 0
701 462 666 0
701 462 473 0
701 269 678 0
701 270 677 0
701 474 485 677 0
701 473 485 678 0
701 473 486 677 0
701 474 486 678 0
701 474 678 0
701 474 485 0
701 287 690 0
701 288 689 0
701 486 497 689 0
701 485 497 690 0
701 485 498 689 0
701 486 498 690 0
701 486 690 0
701 486 497 0
701 -5 -6 0
701 -7 -8 0
701 -9 -10 0
701 -11 -12 0
701 -13 -14 0
701 -15 -16 0
701 -17 -18 0
701 -29 -30 0
701 -31 -32 0
701 -33 -34 0
701 -35 -36 0
701 -41 -42 0
701 -43 -44 0
701 -45 -46 0
701 -47 -48 0
701 -49 -50 0
701 -51 -52 0
701 -53 -54 0
701 -59 -60 0
701 -61 -62 0
701 -63 -64 0
701 -65 -66 0
701 -67 -68 0
701 -69 -70 0
701 -71 -72 0
701 -75 -76 0
701 -77 -78 0
701 -79 -80 0
701 -81 -82 0
701 -83 -84 0
701 -85 -86 0
701 -87 -88 0
701 -89 -90 0
701 -97 -98 0
701 -99 -100 0
701 -101 -102 0
701 -103 -104 0
701 -105 -106 0
701 -107 -108 0
701 -111 -112 0
701 -113 -114 0
701 -115 -116 0
701 -117 -118 0
701 -119 -120 0
701 -121 -122 0
701 -123 -124 0
701 -125 -126 0
701 -129 -130 0
701 -131 -132 0
701 -133 -134 0
701 -135 -136 0
701 -137 -138 0
701 -139 -140 0
701 -141 -142 0
701 -143 -144 0
701 -149 -150 0
701 -151 -152 0
701 -153 -154 0
701 -155 -156 0
701 -157 -158 0
701 -159 -160 0
701 -161 -162 0
701 -167 -168 0
701 -169 -170 0
701 -171 -172 0
701 -173 -174 0
701 -175 -176 0
701 -177 -178 0
701 -179 -180 0
701 -185 -186 0
701 -187 -188 0
701 -189 -190 0
701 -191 -192 0
701 -193 -194 0
701 -195 -196 0
701 -197 -198 0
701 -201 -202 0
701 -203 -204 0
701 -205 -206 0
701 -207 -208 0
701 -209 -210 0
701 -211 -212 0
701 -213 -214 0
701 -215 -216 0
701 -223 -224 0
701 -225 -226 0
701 -227 -228 0
701 -229 -230 0
701 -231 -232 0
701 -233 -234 0
701 -237 -238 0
701 -239 -240 0
701 -241 -242 0
701 -243 -244 0
701 -245 -246 0
701 -247 -248 0
701 -249 -250 0
701 -251 -252 0
701 -261 -262 0
701 -263 -264 0
701 -265 -266 0
701 -267 -268 0
701 -269 -270 0
701 -273 -274 0
701 -275 -276 0
701 -277 -278 0
701 -279 -280 0
701 -281 -282 0
701 -283 -284 0
701 -285 -286 0
701 -287 -288 0
701 -289 -290 0
701 -291 -292 0
701 -293 -294 0
701 -295 -296 0
701 -297 -298 0
701 -299 -300 0
701 -301 -302 0
701 -303 -304 0
701 -317 -318 0
701 -329 -330 0
701 -341 -342 0
701 -353 -354 0
701 -365 -366 0
701 -377 -378 0
701 -389 -390 0
701 -401 -402 0
701 -413 -414 0
701 -425 -426 0
701 -437 -438 0
701 -449 -450 0
701 -461 -462 0
701 -473 -474 0
701 -485 -486 0
701 -497 -498 0
701 -509 -510 0
701 -521 -522 0
701 -533 -534 0
701 -545 -546 0
701 -557 -558 0
701 -569 -570 0
701 -581 -582 0
701 -593 -594 0
701 -605 -606 0
701 -617 -618 0
701 -629 -630 0
701 -641 -642 0
701 -653 -654 0
701 -665 -666 0
701 -677 -678 0
701 -689 -690 0
